contest/ICPC/2014/欧洲/NWERC西北欧/all/knapsackcollection/data/secret/07-largeDenominator.in
2000 9999997 10000000
1083611 1083610 1083610 1083610 1083610 1083610 1083610 1083610 1083610 1083610 1083610 1083610 1083610 1083610 1083610 1083610 1083610 1083610 1083610 1083610 1083610 1083610 1083610 1083610 1083610 1083610 1083610 1083610 1083610 1083610 1083610 1083610 1083610 1083610 1083610 1083610 1083610 1083610 1083610 1083610 1083610 1083610 1083610 1083610 1083610 1083610 1083610 1083610 1083610 1083610 1083610 1083610 1083610 1083610 1083610 1083610 1083610 1083610 1083610 1083610 1083610 1083610 1083610 1083610 1083610 1083610 1083610 1083610 1083610 1083610 1083610 1083610 1083610 1083610 1083610 1083610 1083610 1083610 1083610 1083610 1083610 1083610 1083610 1083610 1083610 1083610 1083610 1083610 1083610 1083610 1083610 1083610 1083610 1083610 1083610 1083610 1083610 1083610 1083610 1083610 1083610 1083610 1083610 1083610 1083610 1083610 1083610 1083610 1083610 1083610 1083610 1083610 1083610 1083610 1083610 1083610 1083610 1083610 1083610 1083610 1083610 1083610 1083610 1083610 1083610 1083610 1083610 1083610 1083610 1083610 1083610 1083610 1083610 1083610 1083610 1083610 1083610 1083610 1083610 1083610 1083610 1083610 1083610 1083610 1083610 1083610 1083610 1083610 1083610 1083610 1083610 1083610 1083610 1083610 1083610 1083610 1083610 1083610 1083610 1083610 1083610 1083610 1083610 1083610 1083610 1083610 1083610 1083610 1083610 1083610 1083610 1083610 1083610 1083610 1083610 1083610 1083610 1083610 1083610 1083610 1083610 1083610 1083610 1083610 1083610 1083610 1083610 1083610 1083610 1083610 1083610 1083610 1083610 1083610 1083610 1083610 1083610 1083610 1083610 1083610 1083610 1083610 1083610 1083610 1083610 1083610 1083610 1083610 1083610 1083610 1083610 1083610 1083610 1083610 1083610 1083610 1083610 1083610 1083610 1083610 1083610 1083610 1083610 1083610 1083610 1083610 1083610 1083610 1083610 1083610 1083610 1083610 1083610 1083610 1083610 1083610 1083610 1083610 1083610 1083610 1083610 1083610 1083610 1083610 1083610 1083610 1083610 1083610 1083610 1083610 1083610 1083610 1083610 1083610 1083610 1083610 1083610 1083610 1083610 1083610 1083610 1083610 1083610 1083610 1083610 1083610 1083610 1083610 1083610 1083610 1083610 1083610 1083610 1083610 1083610 1083610 1083610 1083610 1083610 1083610 1083610 1083610 1083610 1083610 1083610 1083610 1083610 1083610 1083610 1083610 1083610 1083610 1083610 1083610 1083610 1083610 1083610 1083610 1083610 1083610 1083610 1083610 1083610 1083610 1083610 1083610 1083610 1083610 1083610 1083610 1083610 1083610 1083610 1083610 1083610 1083610 1083610 1083610 1083610 1083610 1083610 1083610 1083610 1083610 1083610 1083610 1083610 1083610 1083610 1083610 1083610 1083610 1083610 1083610 1083610 1083610 1083610 1083610 1083610 1083610 1083610 1083610 1083610 1083610 1083610 1083610 1083610 1083610 1083610 1083610 1083610 1083610 1083610 1083610 1083610 1083610 1083610 1083610 1083610 1083610 1083610 1083610 1083610 1083610 1083610 1083610 1083610 1083610 1083610 1083610 1083610 1083610 1083610 1083610 1083610 1083610 1083610 1083610 1083610 1083610 1083610 1083610 1083610 1083610 1083610 1083610 1083610 1083610 1083610 1083610 1083610 1083610 1083610 1083610 1083610 1083610 1083610 1083610 1083610 1083610 1083610 1083610 1083610 1083610 1083610 1083610 1083610 1083610 1083610 1083610 1083610 1083610 1083610 1083610 1083610 1083610 1083610 1083610 1083610 1083610 1083610 1083610 1083610 1083610 1083610 1083610 1083610 1083610 1083610 1083610 1083610 1083610 1083610 1083610 1083610 1083610 1083610 1083610 1083610 1083610 1083610 1083610 1083610 1083610 1083610 1083610 1083610 1083610 1083610 1083610 1083610 1083610 1083610 1083610 1083610 1083610 1083610 1083610 1083610 1083610 1083610 1083610 1083610 1083610 1083610 1083610 1083610 1083610 1083610 1083610 1083610 1083610 1083610 1083610 1083610 1083610 1083610 1083610 1083610 1083610 1083610 1083610 1083610 1083610 1083610 1083610 1083610 1083610 1083610 1083610 1083610 1083610 1083610 1083610 1083610 1083610 1083610 1083610 1083610 1083610 1083610 1083610 1083610 1083610 1083610 1083610 1083610 1083610 1083610 1083610 1083610 1083610 1083610 1083610 1083610 1083610 1083610 1083610 1083610 1083610 1083610 1083610 1083610 1083610 1083610 1083610 1083610 1083610 1083610 1083610 1083610 1083610 1083610 1083610 1083610 1083610 1083610 1083610 1083610 1083610 1083610 1083610 1083610 1083610 1083610 1083610 1083610 1083610 1083610 1083610 1083610 1083610 1083610 1083610 1083610 1083610 1083610 1083610 1083610 1083610 1083610 1083610 1083610 1083610 1083610 1083610 1083610 1083610 1083610 1083610 1083610 1083610 1083610 1083610 1083610 1083610 1083610 1083610 1083610 1083610 1083610 1083610 1083610 1083610 1083610 1083610 1083610 1083610 1083610 1083610 1083610 1083610 1083610 1083610 1083610 1083610 1083610 1083610 1083610 1083610 1083610 1083610 1083610 1083610 1083610 1083610 1083610 1083610 1083610 1083610 1083610 1083610 1083610 1083610 1083610 1083610 1083610 1083610 1083610 1083610 1083610 1083610 1083610 1083610 1083610 1083610 1083610 1083610 1083610 1083610 1083610 1083610 1083610 1083610 1083610 1083610 1083610 1083610 1083610 1083610 1083610 1083610 1083610 1083610 1083610 1083610 1083610 1083610 1083610 1083610 1083610 1083610 1083610 1083610 1083610 1083610 1083610 1083610 1083610 1083610 1083610 1083610 1083610 1083610 1083610 1083610 1083610 1083610 1083610 1083610 1083610 1083610 1083610 1083610 1083610 1083610 1083610 1083610 1083610 1083610 1083610 1083610 1083610 1083610 1083610 1083610 1083610 1083610 1083610 1083610 1083610 1083610 1083610 1083610 1083610 1083610 1083610 1083610 1083610 1083610 1083610 1083610 1083610 1083610 1083610 1083610 1083610 1083610 1083610 1083610 1083610 1083610 1083610 1083610 1083610 1083610 1083610 1083610 1083610 1083610 1083610 1083610 1083610 1083610 1083610 1083610 1083610 1083610 1083610 1083610 1083610 1083610 1083610 1083610 1083610 1083610 1083610 1083610 1083610 1083610 1083610 1083610 1083610 1083610 1083610 1083610 1083610 1083610 1083610 1083610 1083610 1083610 1083610 1083610 1083610 1083610 1083610 1083610 1083610 1083610 1083610 1083610 1083610 1083610 1083610 1083610 1083610 1083610 1083610 1083610 1083610 1083610 1083610 1083610 1083610 1083610 1083610 1083610 1083610 1083610 1083610 1083610 1083610 1083610 1083610 1083610 1083610 1083610 1083610 1083610 1083610 1083610 1083610 1083610 1083610 1083610 1083610 1083610 1083610 1083610 1083610 1083610 1083610 1083610 1083610 1083610 1083610 1083610 1083610 1083610 1083610 1083610 1083610 1083610 1083610 1083610 1083610 1083610 1083610 1083610 1083610 1083610 1083610 1083610 1083610 1083610 1083610 1083610 1083610 1083610 1083610 1083610 1083610 1083610 1083610 1083610 1083610 1083610 1083610 1083610 1083610 1083610 1083610 1083610 1083610 1083610 1083610 1083610 1083610 1083610 1083610 1083610 1083610 1083610 1083610 1083610 1083610 1083610 1083610 1083610 1083610 1083610 1083610 1083610 1083610 1083610 1083610 1083610 1083610 1083610 1083610 1083610 1083610 1083610 1083610 1083610 1083610 1083610 1083610 1083610 1083610 1083610 1083610 1083610 1083610 1083610 1083610 1083610 1083610 1083610 1083610 1083610 1083610 1083610 1083610 1083610 1083610 1083610 1083610 1083610 1083610 1083610 1083610 1083610 1083610 1083610 1083610 1083610 1083610 1083610 1083610 1083610 1083610 1083610 1083610 1083610 1083610 1083610 1083610 1083610 1083610 1083610 1083610 1083610 1083610 1083610 1083610 1083610 1083610 1083610 1083610 1083610 1083610 1083610 1083610 1083610 1083610 1083610 1083610 1083610 1083610 1083610 1083610 1083610 1083610 1083610 1083610 1083610 1083610 1083610 1083610 1083610 1083610 1083610 1083610 1083610 1083610 1083610 1083610 1083610 1083610 1083610 1083610 1083610 1083610 1083610 1083610 1083610 1083610 1083610 1083610 1083610 1083610 1083610 1083610 1083610 1083610 1083610 1083610 1083610 1083610 1083610 1083610 1083610 1083610 1083610 1083610 1083610 1083610 1083610 1083610 1083610 1083610 1083610 1083610 1083610 1083610 1083610 1083610 1083610 1083610 1083610 1083610 1083610 1083610 1083610 1083610 1083610 1083610 1083610 1083610 1083610 1083610 1083610 1083610 1083610 1083610 1083610 1083610 1083610 1083610 1083610 1083610 1083610 1083610 1083610 1083610 1083610 1083610 1083610 1083610 1083610 1083610 1083610 1083610 1083610 1083610 1083610 1083610 1083610 1083610 1083610 1083610 1083610 1083610 1083610 1083610 1083610 1083610 1083610 1083610 1083610 1083610 1083610 1083610 1083610 1083610 1083610 1083610 1083610 1083610 1083610 1083610 1083610 1083610 1083610 1083610 1083610 1083610 1083610 1083610 1083610 1083610 1083610 1083610 1083610 1083610 1083610 1083610 1083610 1083610 1083610 1083610 1083610 1083610 1083610 1083610 1083610 1083610 1083610 1083610 1083610 1083610 1083610 1083610 1083610 1083610 1083610 1083610 1083610 1083610 1083610 1083610 1083610 1083610 1083610 1083610 1083610 1083610 1083610 1083610 1083610 1083610 1083610 1083610 1083610 1083610 1083610 1083610 1083610 1083610 1083610 1083610 1083610 1083610 1083610 1083610 1083610 1083610 1083610 1083610 1083610 1083610 1083610 1083610 1083610 1083610 1083610 1083610 1083610 1083610 1083610 1083610 1083610 1083610 1083610 1083610 1083610 1083610 1083610 1083610 1083610 1083610 1083610 1083610 1083610 1083610 1083610 1083610 1083610 1083610 1083610 1083610 1083610 1083610 1083610 1083610 1083610 1083610 1083610 1083610 1083610 1083610 1083610 1083610 1083610 1083610 1083610 1083610 1083610 1083610 1083610 1083610 1083610 1083610 1083610 1083610 1083610 1083610 1083610 1083610 1083610 1083610 1083610 1083610 1083610 1083610 1083610 1083610 1083610 1083610 1083610 1083610 1083610 1083610 1083610 1083610 1083610 1083610 1083610 1083610 1083610 1083610 1083610 1083610 1083610 1083610 1083610 1083610 1083610 1083610 1083610 1083610 1083610 1083610 1083610 1083610 1083610 1083610 1083610 1083610 1083610 1083610 1083610 1083610 1083610 1083610 1083610 1083610 1083610 1083610 1083610 1083610 1083610 1083610 1083610 1083610 1083610 1083610 1083610 1083610 1083610 1083610 1083610 1083610 1083610 1083610 1083610 1083610 1083610 1083610 1083610 1083610 1083610 1083610 1083610 1083610 1083610 1083610 1083610 1083610 1083610 1083610 1083610 1083610 1083610 1083610 1083610 1083610 1083610 1083610 1083610 1083610 1083610 1083610 1083610 1083610 1083610 1083610 1083610 1083610 1083610 1083610 1083610 1083610 1083610 1083610 1083610 1083610 1083610 1083610 1083610 1083610 1083610 1083610 1083610 1083610 1083610 1083610 1083610 1083610 1083610 1083610 1083610 1083610 1083610 1083610 1083610 1083610 1083610 1083610 1083610 1083610 1083610 1083610 1083610 1083610 1083610 1083610 1083610 1083610 1083610 1083610 1083610 1083610 1083610 1083610 1083610 1083610 1083610 1083610 1083610 1083610 1083610 1083610 1083610 1083610 1083610 1083610 1083610 1083610 1083610 1083610 1083610 1083610 1083610 1083610 1083610 1083610 1083610 1083610 1083610 1083610 1083610 1083610 1083610 1083610 1083610 1083610 1083610 1083610 1083610 1083610 1083610 1083610 1083610 1083610 1083610 1083610 1083610 1083610 1083610 1083610 1083610 1083610 1083610 1083610 1083610 1083610 1083610 1083610 1083610 1083610 1083610 1083610 1083610 1083610 1083610 1083610 1083610 1083610 1083610 1083610 1083610 1083610 1083610 1083610 1083610 1083610 1083610 1083610 1083610 1083610 1083610 1083610 1083610 1083610 1083610 1083610 1083610 1083610 1083610 1083610 1083610 1083610 1083610 1083610 1083610 1083610 1083610 1083610 1083610 1083610 1083610 1083610 1083610 1083610 1083610 1083610 1083610 1083610 1083610 1083610 1083610 1083610 1083610 1083610 1083610 1083610 1083610 1083610 1083610 1083610 1083610 1083610 1083610 1083610 1083610 1083610 1083610 1083610 1083610 1083610 1083610 1083610 1083610 1083610 1083610 1083610 1083610 1083610 1083610 1083610 1083610 1083610 1083610 1083610 1083610 1083610 1083610 1083610 1083610 1083610 1083610 1083610 1083610 1083610 1083610 1083610 1083610 1083610 1083610 1083610 1083610 1083610 1083610 1083610 1083610 1083610 1083610 1083610 1083610 1083610 1083610 1083610 1083610 1083610 1083610 1083610 1083610 1083610 1083610 1083610 1083610 1083610 1083610 1083610 1083610 1083610 1083610 1083610 1083610 1083610 1083610 1083610 1083610 1083610 1083610 1083610 1083610 1083610 1083610 1083610 1083610 1083610 1083610 1083610 1083610 1083610 1083610 1083610 1083610 1083610 1083610 1083610 1083610 1083610 1083610 1083610 1083610 1083610 1083610 1083610 1083610 1083610 1083610 1083610 1083610 1083610 1083610 1083610 1083610 1083610 1083610 1083610 1083610 1083610 1083610 1083610 1083610 1083610 1083610 1083610 1083610 1083610 1083610 1083610 1083610 1083610 1083610 1083610 1083610 1083610 1083610 1083610 1083610 1083610 1083610 1083610 1083610 1083610 1083610 1083610 1083610 1083610 1083610 1083610 1083610 1083610 1083610 1083610 1083610 1083610 1083610 1083610 1083610 1083610 1083610 1083610 1083610 1083610 1083610 1083610 1083610 1083610 1083610 1083610 1083610 1083610 1083610 1083610 1083610 1083610 1083610 1083610 1083610 1083610 1083610 1083610 1083610 1083610 1083610 1083610 1083610 1083610 1083610 1083610 1083610 1083610 1083610 1083610 1083610 1083610 1083610 1083610 1083610 1083610 1083610 1083610 1083610 1083610 1083610 1083610 1083610 1083610 1083610 1083610 1083610 1083610 1083610 1083610 1083610 1083610 1083610 1083610 1083610 1083610 1083610 1083610 1083610 1083610 1083610 1083610 1083610 1083610 1083610 1083610 1083610 1083610 1083610 1083610 1083610 1083610 1083610 1083610 1083610 1083610 1083610 1083610 1083610 1083610 1083610 1083610 1083610 1083610 1083610 1083610 1083610 1083610 1083610 1083610 1083610 1083610 1083610 1083610 1083610 1083610 1083610 1083610 1083610 1083610 1083610 1083610 1083610 1083610 1083610 1083610 1083610 1083610 1083610 1083610 1083610 1083610 1083610 1083610 1083610 1083610 1083610 1083610 1083610 1083610 1083610 1083610 1083610 1083610 1083610 1083610 1083610 1083610 1083610 1083610 1083610 1083610 1083610 1083610 1083610 1083610 1083610 1083610 1083610 1083610 1083610 1083610 1083610 1083610 1083610 1083610 1083610 1083610 1083610 1083610 1083610 1083610 1083610 1083610 1083610 1083610 1083610 1083610 1083610 1083610 1083610 1083610 1083610 1083610 1083610 1083610 1083610 1083610 1083610 1083610 1083610 1083610 1083610 1083610 1083610 1083610 1083610 1083610 1083610 1083610 1083610 1083610 1083610 1083610 1083610 1083610 1083610 1083610 1083610 1083610 1083610 1083610 1083610 1083610 1083610 1083610 1083610 1083610 1083610 1083610 1083610 1083610 1083610 1083610 1083610 1083610 1083610 1083610 1083610 1083610 1083610 1083610 1083610 1083610 1083610 1083610 1083610 1083610 1083610 1083610 1083610 1083610 1083610 1083610 1083610 1083610 1083610 1083610 1083610 1083610 1083610 1083610 1083610 1083610 1083610 1083610 1083610 1083610 1083610 1083610 1083610 1083610 1083610 1083610 1083610 1083610 1083610 1083610 1083610 1083610 1083610 1083610 1083610 1083610 1083610 1083610 1083610 1083610 1083610 1083610 1083610 1083610 1083610 1083610 1083610 1083610 1083610 1083610 1083610 1083610 1083610 1083610 1083610 1083610 1083610 1083610 1083610 1083610 1083610 1083610 1083610 1083610 1083610 1083610 1083610 1083610 1083610 1083610 1083610 1083610 1083610 1083610 1083610 1083610 1083610 1083610 1083610 1083610 1083610 1083610 1083610 1083610 1083610 1083610 1083610 1083610 1083610 1083610 1083610 1083610 1083610 1083610 1083610 1083610 1083610 1083610 1083610 1083610 1083610 1083610 1083610 1083610 1083610 1083610 1083610 1083610 1083610 1083610 1083610 1083610 1083610 1083610 1083610 1083610 1083610 1083610 1083610 1083610 1083610 1083610 1083610 1083610 1083610 1083610 1083610 1083610 1083610 1083610 1083610 1083610 1083610 1083610 1083610 1083610 1083610 1083610 1083610 1083610 1083610 1083610 1083610 1083610 1083610 1083610 1083610 1083610 1083610 1083610 1083610 1083610 1083610 1083610 1083610 1083610 1083610 1083610 1083610 1083610 1083610 1083610 1083610 1083610 1083610 1083610 1083610 1083610 1083610 1083610 1083610
