contest/ICPC/2014/欧洲/NWERC西北欧/all/knapsackcollection/data/secret/07-largeDenominator.ans
39989988005
39999988002
399949760055035987/9999997
